
Log started (V11.0.0) Mon Apr 14 11:23:55 2008

Tried aggregator 1 time.
Reduced MIP has 540 rows, 20001 columns, and 40040 nonzeros.
Presolve time =    0.14 sec.
Clique table members: 500.
MIP emphasis: balance optimality and feasibility.
MIP search method: dynamic search.
Parallel mode: none, using 1 thread.
Root relaxation solution time =    0.66 sec.

        Nodes                                         Cuts/
   Node  Left     Objective  IInf  Best Integer     Best Node    ItCnt     Gap

*     0+    0                        26508.0000       37.3528     1204   99.86%
*     0+    0                           42.0000       37.3528     1204   11.06%
      0     0       38.0000    46       42.0000      Fract: 5     1218    9.52%
*     0+    0                           41.0000       38.0000     1218    7.32%

Repeating presolve.
Tried aggregator 1 time.
MIP Presolve eliminated 0 rows and 12086 columns.
Reduced MIP has 540 rows, 7915 columns, and 15868 nonzeros.
Tried aggregator 1 time.
Represolve time =    0.45 sec.
Clique table members: 914.
MIP emphasis: balance optimality and feasibility.
MIP search method: dynamic search.
Parallel mode: none, using 1 thread.
Root relaxation solution time =    0.20 sec.

        Nodes                                         Cuts/
   Node  Left     Objective  IInf  Best Integer     Best Node    ItCnt     Gap

      0     0       38.0000    75       41.0000       38.0000      907    7.32%
      0     2       38.0000    75       41.0000       38.0000      907    7.32%
*    10+   10                           40.0000       38.0000     1372    5.00%
    100    91       39.0000    38       40.0000       38.0000     5436    5.00%
    200   179       39.0000    61       40.0000       38.0000    11603    5.00%
    300   257       39.0000    65       40.0000       38.0000    20378    5.00%
    400   321       39.0000    51       40.0000       38.0000    31496    5.00%
    500   400       38.0000    66       40.0000       38.0000    40060    5.00%
*   509+  270                           39.0000       38.0000    42158    2.56%
    600   288       38.0000    71       39.0000       38.0000    49294    2.56%
    700   298       38.0000    67       39.0000       38.0000    60329    2.56%
    800   322       38.0000    60       39.0000       38.0000    68681    2.56%
    900   325       38.0000    81       39.0000       38.0000    80216    2.56%
   1000   401       38.0000    78       39.0000       38.0000    95477    2.56%
Elapsed time =  67.75 sec. (tree size =  4.34 MB, solutions = 5)
   1100   483       38.0000    65       39.0000       38.0000   108164    2.56%
   1200   553       38.0000   106       39.0000       38.0000   126038    2.56%
   1300   633       38.0000   146       39.0000       38.0000   143959    2.56%
   1400   711       38.0000    84       39.0000       38.0000   163611    2.56%
   1500   789       38.0000    71       39.0000       38.0000   183652    2.56%
   1600   855       38.0000    80       39.0000       38.0000   207736    2.56%
   1700   899       38.0000   175       39.0000       38.0000   247930    2.56%
   1800   951    infeasible             39.0000       38.0000   285522    2.56%
   1900  1033       38.0000    89       39.0000       38.0000   308483    2.56%
   2000  1095       38.0000   199       39.0000       38.0000   344541    2.56%
Elapsed time = 232.13 sec. (tree size = 16.18 MB, solutions = 5)
   2100  1169       38.0000    50       39.0000       38.0000   373275    2.56%
   2200  1241       38.0000    87       39.0000       38.0000   398981    2.56%
   2300  1325       38.0000   114       39.0000       38.0000   420944    2.56%
   2400  1401    infeasible             39.0000       38.0000   448112    2.56%
   2500  1475    infeasible             39.0000       38.0000   477001    2.56%
   2600  1547       38.0000   126       39.0000       38.0000   502558    2.56%
   2700  1619    infeasible             39.0000       38.0000   533416    2.56%
   2800  1691       38.0000    79       39.0000       38.0000   564240    2.56%
   2900  1765       38.0000   123       39.0000       38.0000   595610    2.56%
   3000  1841    infeasible             39.0000       38.0000   623184    2.56%
Elapsed time = 486.20 sec. (tree size = 35.25 MB, solutions = 5)
   3100  1927       38.0000   113       39.0000       38.0000   648258    2.56%
   3200  1967       38.0000   171       39.0000       38.0000   704684    2.56%
   3300  2021       38.0000   105       39.0000       38.0000   754184    2.56%
   3400  2101       38.0000   212       39.0000       38.0000   787570    2.56%
   3500  2167       38.0000   115       39.0000       38.0000   828617    2.56%
   3600  2231       38.0000   207       39.0000       38.0000   865638    2.56%
   3700  2303       38.0000   186       39.0000       38.0000   901205    2.56%
   3800  2371       38.0000    88       39.0000       38.0000   948942    2.56%
   3900  2439       38.0000   228       39.0000       38.0000   999997    2.56%
   4000  2517       38.0000    55       39.0000       38.0000  1027482    2.56%
Elapsed time = 945.72 sec. (tree size = 58.39 MB, solutions = 5)
   4100  2565       38.0000   200       39.0000       38.0000  1086209    2.56%
   4200  2621       38.0000   101       39.0000       38.0000  1132972    2.56%
   4300  2693       38.0000   179       39.0000       38.0000  1171468    2.56%
   4400  2739    infeasible             39.0000       38.0000  1233182    2.56%
   4500  2821       38.0000   142       39.0000       38.0000  1259798    2.56%
   4600  2893       38.0000   167       39.0000       38.0000  1305948    2.56%
   4700  2967       38.0000    48       39.0000       38.0000  1339065    2.56%
   4800  3049       38.0000    43       39.0000       38.0000  1369389    2.56%
   4900  3125       38.0000    64       39.0000       38.0000  1401325    2.56%
   5000  3191       38.0000    52       39.0000       38.0000  1426628    2.56%
Elapsed time = 1493.70 sec. (tree size = 86.08 MB, solutions = 5)
   5100  3237       38.0000   161       39.0000       38.0000  1477151    2.56%
   5200  3261       38.0000    84       39.0000       38.0000  1523686    2.56%
   5300  3301       38.0000    32       39.0000       38.0000  1563626    2.56%
   5400  3337       38.0000    86       39.0000       38.0000  1614670    2.56%
   5500  3395       38.0000    59       39.0000       38.0000  1650639    2.56%
   5600  3429    infeasible             39.0000       38.0000  1700226    2.56%
   5700  3475       38.0000   105       39.0000       38.0000  1746423    2.56%
   5800  3511       38.0000    18       39.0000       38.0000  1807475    2.56%
   5900  3533       38.0000   127       39.0000       38.0000  1901517    2.56%
*  5909+    0                           38.0000       38.0000  1907395    0.00%

Cover cuts applied:  2691
Mixed integer rounding cuts applied:  2
Gomory fractional cuts applied:  7

Solution pool: 6 solutions saved.

MIP - Integer optimal solution:  Objective = 3.8000000000e+001
Solution time = 2086.80 sec.  Iterations = 1907395  Nodes = 5909


Incumbent solution
Variable Name           Solution Value
Cmax                         38.000000
X_1_40                        1.000000
X_2_26                        1.000000
X_3_39                        1.000000
X_4_26                        1.000000
X_5_17                        1.000000
X_6_37                        1.000000
X_7_23                        1.000000
X_8_9                         1.000000
X_9_25                        1.000000
X_10_39                       1.000000
X_11_34                       1.000000
X_12_35                       1.000000
X_13_28                       1.000000
X_14_28                       1.000000
X_15_12                       1.000000
X_16_4                        1.000000
X_17_22                       1.000000
X_18_9                        1.000000
X_19_40                       1.000000
X_20_8                        1.000000
X_21_18                       1.000000
X_22_36                       1.000000
X_23_16                       1.000000
X_24_17                       1.000000
X_25_38                       1.000000
X_26_6                        1.000000
X_27_8                        1.000000
X_28_16                       1.000000
X_29_16                       1.000000
X_30_12                       1.000000
X_31_23                       1.000000
X_32_32                       1.000000
X_33_5                        1.000000
X_34_20                       1.000000
X_35_37                       1.000000
X_36_36                       1.000000
X_37_15                       1.000000
X_38_23                       1.000000
X_39_39                       1.000000
X_40_39                       1.000000
X_41_24                       1.000000
X_42_9                        1.000000
X_43_37                       1.000000
X_44_34                       1.000000
X_45_8                        1.000000
X_46_5                        1.000000
X_47_9                        1.000000
X_48_7                        1.000000
X_49_36                       1.000000
X_50_15                       1.000000
X_51_3                        1.000000
X_52_1                        1.000000
X_53_1                        1.000000
X_54_25                       1.000000
X_55_14                       1.000000
X_56_9                        1.000000
X_57_23                       1.000000
X_58_34                       1.000000
X_59_5                        1.000000
X_60_30                       1.000000
X_61_20                       1.000000
X_62_22                       1.000000
X_63_27                       1.000000
X_64_27                       1.000000
X_65_39                       1.000000
X_66_18                       1.000000
X_67_9                        1.000000
X_68_30                       1.000000
X_69_2                        1.000000
X_70_40                       1.000000
X_71_37                       1.000000
X_72_1                        1.000000
X_73_29                       1.000000
X_74_4                        1.000000
X_75_31                       1.000000
X_76_6                        1.000000
X_77_24                       1.000000
X_78_32                       1.000000
X_79_27                       1.000000
X_80_15                       1.000000
X_81_22                       1.000000
X_82_11                       1.000000
X_83_38                       1.000000
X_84_34                       1.000000
X_85_18                       1.000000
X_86_31                       1.000000
X_87_38                       1.000000
X_88_12                       1.000000
X_89_12                       1.000000
X_90_22                       1.000000
X_91_19                       1.000000
X_92_11                       1.000000
X_93_18                       1.000000
X_94_17                       1.000000
X_95_36                       1.000000
X_96_5                        1.000000
X_97_4                        1.000000
X_98_18                       1.000000
X_99_13                       1.000000
X_100_32                      1.000000
X_101_10                      1.000000
X_102_8                       1.000000
X_103_28                      1.000000
X_104_11                      1.000000
X_105_35                      1.000000
X_106_17                      1.000000
X_107_10                      1.000000
X_108_27                      1.000000
X_109_22                      1.000000
X_110_30                      1.000000
X_111_23                      1.000000
X_112_24                      1.000000
X_113_6                       1.000000
X_114_1                       1.000000
X_115_31                      1.000000
X_116_19                      1.000000
X_117_15                      1.000000
X_118_18                      1.000000
X_119_28                      1.000000
X_120_8                       1.000000
X_121_11                      1.000000
X_122_40                      1.000000
X_123_11                      1.000000
X_124_26                      1.000000
X_125_35                      1.000000
X_126_22                      1.000000
X_127_10                      1.000000
X_128_37                      1.000000
X_129_10                      1.000000
X_130_5                       1.000000
X_131_25                      1.000000
X_132_32                      1.000000
X_133_14                      1.000000
X_134_13                      1.000000
X_135_14                      1.000000
X_136_11                      1.000000
X_137_10                      1.000000
X_138_31                      1.000000
X_139_21                      1.000000
X_140_30                      1.000000
X_141_5                       1.000000
X_142_19                      1.000000
X_143_7                       1.000000
X_144_18                      1.000000
X_145_21                      1.000000
X_146_30                      1.000000
X_147_40                      1.000000
X_148_29                      1.000000
X_149_9                       1.000000
X_150_35                      1.000000
X_151_23                      1.000000
X_152_15                      1.000000
X_153_38                      1.000000
X_154_22                      1.000000
X_155_2                       1.000000
X_156_35                      1.000000
X_157_26                      1.000000
X_158_40                      1.000000
X_159_2                       1.000000
X_160_31                      1.000000
X_161_11                      1.000000
X_162_8                       1.000000
X_163_10                      1.000000
X_164_7                       1.000000
X_165_31                      1.000000
X_166_4                       1.000000
X_167_9                       1.000000
X_168_16                      1.000000
X_169_8                       1.000000
X_170_7                       1.000000
X_171_1                       1.000000
X_172_38                      1.000000
X_173_16                      1.000000
X_174_21                      1.000000
X_175_36                      1.000000
X_176_18                      1.000000
X_177_24                      1.000000
X_178_7                       1.000000
X_179_8                       1.000000
X_180_33                      1.000000
X_181_26                      1.000000
X_182_35                      1.000000
X_183_40                      1.000000
X_184_39                      1.000000
X_185_21                      1.000000
X_186_24                      1.000000
X_187_5                       1.000000
X_188_8                       1.000000
X_189_19                      1.000000
X_190_38                      1.000000
X_191_40                      1.000000
X_192_29                      1.000000
X_193_27                      1.000000
X_194_12                      1.000000
X_195_34                      1.000000
X_196_10                      1.000000
X_197_28                      1.000000
X_198_28                      1.000000
X_199_19                      1.000000
X_200_37                      1.000000
X_201_31                      1.000000
X_202_4                       1.000000
X_203_16                      1.000000
X_204_1                       1.000000
X_205_9                       1.000000
X_206_30                      1.000000
X_207_24                      1.000000
X_208_32                      1.000000
X_209_16                      1.000000
X_210_37                      1.000000
X_211_29                      1.000000
X_212_20                      1.000000
X_213_13                      1.000000
X_214_14                      1.000000
X_215_37                      1.000000
X_216_16                      1.000000
X_217_40                      1.000000
X_218_3                       1.000000
X_219_19                      1.000000
X_220_7                       1.000000
X_221_10                      1.000000
X_222_39                      1.000000
X_223_14                      1.000000
X_224_30                      1.000000
X_225_19                      1.000000
X_226_17                      1.000000
X_227_12                      1.000000
X_228_13                      1.000000
X_229_28                      1.000000
X_230_10                      1.000000
X_231_29                      1.000000
X_232_40                      1.000000
X_233_12                      1.000000
X_234_13                      1.000000
X_235_23                      1.000000
X_236_33                      1.000000
X_237_12                      1.000000
X_238_7                       1.000000
X_239_20                      1.000000
X_240_26                      1.000000
X_241_36                      1.000000
X_242_33                      1.000000
X_243_20                      1.000000
X_244_27                      1.000000
X_245_28                      1.000000
X_246_29                      1.000000
X_247_3                       1.000000
X_248_36                      1.000000
X_249_4                       1.000000
X_250_15                      1.000000
X_251_39                      1.000000
X_252_14                      1.000000
X_253_14                      1.000000
X_254_33                      1.000000
X_255_5                       1.000000
X_256_30                      1.000000
X_257_17                      1.000000
X_258_11                      1.000000
X_259_35                      1.000000
X_260_28                      1.000000
X_261_33                      1.000000
X_262_27                      1.000000
X_263_38                      1.000000
X_264_20                      1.000000
X_265_5                       1.000000
X_266_24                      1.000000
X_267_3                       1.000000
X_268_11                      1.000000
X_269_6                       1.000000
X_270_12                      1.000000
X_271_33                      1.000000
X_272_18                      1.000000
X_273_23                      1.000000
X_274_32                      1.000000
X_275_20                      1.000000
X_276_20                      1.000000
X_277_7                       1.000000
X_278_31                      1.000000
X_279_14                      1.000000
X_280_27                      1.000000
X_281_6                       1.000000
X_282_28                      1.000000
X_283_5                       1.000000
X_284_29                      1.000000
X_285_35                      1.000000
X_286_20                      1.000000
X_287_11                      1.000000
X_288_17                      1.000000
X_289_3                       1.000000
X_290_33                      1.000000
X_291_10                      1.000000
X_292_4                       1.000000
X_293_14                      1.000000
X_294_36                      1.000000
X_295_1                       1.000000
X_296_25                      1.000000
X_297_33                      1.000000
X_298_35                      1.000000
X_299_31                      1.000000
X_300_26                      1.000000
X_301_20                      1.000000
X_302_15                      1.000000
X_303_30                      1.000000
X_304_20                      1.000000
X_305_9                       1.000000
X_306_33                      1.000000
X_307_5                       1.000000
X_308_12                      1.000000
X_309_1                       1.000000
X_310_29                      1.000000
X_311_8                       1.000000
X_312_22                      1.000000
X_313_35                      1.000000
X_314_11                      1.000000
X_315_34                      1.000000
X_316_22                      1.000000
X_317_39                      1.000000
X_318_22                      1.000000
X_319_13                      1.000000
X_320_32                      1.000000
X_321_32                      1.000000
X_322_23                      1.000000
X_323_8                       1.000000
X_324_14                      1.000000
X_325_31                      1.000000
X_326_3                       1.000000
X_327_3                       1.000000
X_328_36                      1.000000
X_329_5                       1.000000
X_330_21                      1.000000
X_331_38                      1.000000
X_332_14                      1.000000
X_333_7                       1.000000
X_334_23                      1.000000
X_335_18                      1.000000
X_336_6                       1.000000
X_337_13                      1.000000
X_338_10                      1.000000
X_339_34                      1.000000
X_340_16                      1.000000
X_341_12                      1.000000
X_342_9                       1.000000
X_343_10                      1.000000
X_344_37                      1.000000
X_345_12                      1.000000
X_346_31                      1.000000
X_347_18                      1.000000
X_348_32                      1.000000
X_349_20                      1.000000
X_350_11                      1.000000
X_351_38                      1.000000
X_352_6                       1.000000
X_353_1                       1.000000
X_354_29                      1.000000
X_355_7                       1.000000
X_356_37                      1.000000
X_357_29                      1.000000
X_358_18                      1.000000
X_359_23                      1.000000
X_360_4                       1.000000
X_361_11                      1.000000
X_362_19                      1.000000
X_363_20                      1.000000
X_364_19                      1.000000
X_365_9                       1.000000
X_366_13                      1.000000
X_367_14                      1.000000
X_368_6                       1.000000
X_369_25                      1.000000
X_370_4                       1.000000
X_371_2                       1.000000
X_372_37                      1.000000
X_373_35                      1.000000
X_374_39                      1.000000
X_375_2                       1.000000
X_376_26                      1.000000
X_377_33                      1.000000
X_378_29                      1.000000
X_379_9                       1.000000
X_380_1                       1.000000
X_381_19                      1.000000
X_382_16                      1.000000
X_383_31                      1.000000
X_384_1                       1.000000
X_385_17                      1.000000
X_386_4                       1.000000
X_387_8                       1.000000
X_388_14                      1.000000
X_389_13                      1.000000
X_390_29                      1.000000
X_391_11                      1.000000
X_392_20                      1.000000
X_393_34                      1.000000
X_394_31                      1.000000
X_395_24                      1.000000
X_396_3                       1.000000
X_397_17                      1.000000
X_398_19                      1.000000
X_399_12                      1.000000
X_400_40                      1.000000
X_401_4                       1.000000
X_402_10                      1.000000
X_403_39                      1.000000
X_404_35                      1.000000
X_405_21                      1.000000
X_406_37                      1.000000
X_407_27                      1.000000
X_408_11                      1.000000
X_409_30                      1.000000
X_410_14                      1.000000
X_411_30                      1.000000
X_412_20                      1.000000
X_413_27                      1.000000
X_414_22                      1.000000
X_415_27                      1.000000
X_416_19                      1.000000
X_417_15                      1.000000
X_418_1                       1.000000
X_419_21                      1.000000
X_420_1                       1.000000
X_421_27                      1.000000
X_422_10                      1.000000
X_423_9                       1.000000
X_424_20                      1.000000
X_425_15                      1.000000
X_426_15                      1.000000
X_427_34                      1.000000
X_428_27                      1.000000
X_429_21                      1.000000
X_430_30                      1.000000
X_431_15                      1.000000
X_432_21                      1.000000
X_433_21                      1.000000
X_434_14                      1.000000
X_435_36                      1.000000
X_436_36                      1.000000
X_437_5                       1.000000
X_438_7                       1.000000
X_439_39                      1.000000
X_440_33                      1.000000
X_441_16                      1.000000
X_442_26                      1.000000
X_443_17                      1.000000
X_444_30                      1.000000
X_445_28                      1.000000
X_446_11                      1.000000
X_447_2                       1.000000
X_448_24                      1.000000
X_449_7                       1.000000
X_450_34                      1.000000
X_451_19                      1.000000
X_452_5                       1.000000
X_453_5                       1.000000
X_454_39                      1.000000
X_455_31                      1.000000
X_456_14                      1.000000
X_457_21                      1.000000
X_458_13                      1.000000
X_459_37                      1.000000
X_460_7                       1.000000
X_461_3                       1.000000
X_462_25                      1.000000
X_463_32                      1.000000
X_464_9                       1.000000
X_465_21                      1.000000
X_466_34                      1.000000
X_467_25                      1.000000
X_468_6                       1.000000
X_469_27                      1.000000
X_470_6                       1.000000
X_471_16                      1.000000
X_472_21                      1.000000
X_473_27                      1.000000
X_474_5                       1.000000
X_475_25                      1.000000
X_476_23                      1.000000
X_477_26                      1.000000
X_478_39                      1.000000
X_479_23                      1.000000
X_480_39                      1.000000
X_481_15                      1.000000
X_482_32                      1.000000
X_483_30                      1.000000
X_484_32                      1.000000
X_485_31                      1.000000
X_486_13                      1.000000
X_487_15                      1.000000
X_488_29                      1.000000
X_489_3                       1.000000
X_490_40                      1.000000
X_491_25                      1.000000
X_492_28                      1.000000
X_493_38                      1.000000
X_494_21                      1.000000
X_495_15                      1.000000
X_496_19                      1.000000
X_497_1                       1.000000
X_498_23                      1.000000
X_499_12                      1.000000
X_500_19                      1.000000
All other variables in the range 1-20001 are 0.
